c A SAT instance generated from a 3-CNF formula that had 28 clauses and 16 variables
p cnf 16 28
-1 -12 11 0
3 1 -7 0
8 -16 -13 0
1 -14 6 0
-4 2 -6 0
-7 5 8 0
7 -4 -5 0
16 -3 -12 0
1 12 15 0
5 12 -7 0
3 11 -14 0
-6 2 10 0
-14 -10 -2 0
9 -10 -7 0
7 -10 13 0
-6 5 -7 0
6 -9 -13 0
10 -15 4 0
-6 8 -7 0
-5 -16 -8 0
-1 9 2 0
-2 10 -9 0
-16 2 6 0
1 -15 13 0
-5 2 11 0
16 -9 -4 0
5 -7 2 0
-9 10 -14 0
